c turning on binary mode checking
c parsing input formula with 259840 variables and 1039924 clauses
c finished parsing, read 3047465 bytes from proof file
c detected empty clause; start verification via backward checking
c 2465 of 1039924 clauses in core                            
c 723 of 116480 lemmas in core using 16001 resolution steps
c 0 RAT lemmas in core; 77 redundant literals in core lemmas
s VERIFIED
c verification time: 1.390 seconds
